(set-logic QF_S)
(declare-fun T_102 () Bool)
(declare-fun T_103 () Bool)
(declare-fun T_66 () Bool)
(declare-fun T_67 () Bool)
(declare-fun T_SELECT_10 () Bool)
(declare-fun I0_154 () Int)
(declare-fun I0_158 () Int)
(declare-fun I1_154 () Int)
(declare-fun I1_158 () Int)
(declare-fun I2_154 () Int)
(declare-fun I2_158 () Int)
(declare-fun PCTEMP_LHS_40 () Int)
(declare-fun T_6b () Int)
(declare-fun NEW_DGNode_693 () String)
(declare-fun NEW_DGNode_694 () String)
(declare-fun NEW_DGNode_696 () String)
(declare-fun NEW_DGNode_697 () String)
(declare-fun PCTEMP_LHS_44 () String)
(assert (= PCTEMP_LHS_44 NEW_DGNode_697))
(assert (= NEW_DGNode_697 NEW_DGNode_696))
(assert (= NEW_DGNode_697 NEW_DGNode_694))
(assert (= NEW_DGNode_694 NEW_DGNode_693))
(assert (not (str.in.re NEW_DGNode_694 (str.to.re ""))))
(assert (not (str.in.re NEW_DGNode_693 (str.to.re "+"))))
(assert (not (str.in.re NEW_DGNode_696 (str.to.re "%"))))
(assert (= T_SELECT_10 (not (= PCTEMP_LHS_40 (- 1)))))
(assert T_67)
(assert (= T_67 (not T_66)))
(assert (= T_66 (= PCTEMP_LHS_40 (- 1))))
(assert (= I0_154 (- PCTEMP_LHS_40 0)))
(assert (>= PCTEMP_LHS_40 0))
(assert (= I2_154 I1_154))
(assert (<= PCTEMP_LHS_40 I1_154))
(assert (= T_6b (+ PCTEMP_LHS_40 1)))
(assert (>= T_6b 0))
(assert (>= I2_158 T_6b))
(assert (= I2_158 I1_158))
(assert (<= I2_158 I1_158))
(assert (= I0_158 (- I2_158 T_6b)))
(assert (= I0_158 (str.len PCTEMP_LHS_44))) ; len 0
(assert T_102)
(assert T_103)
(assert (= T_103 (not T_102)))
(check-sat)
